&BANDS
 prefix = 'Si'
 outdir = './wavefunc'
 filband = 'band.plot'
/
