&control
    calculation = 'bands'
    restart_mode='restart',
    prefix='Si',
    pseudo_dir ='../pseudo',
    outdir='./wavefunc'
    verbosity = 'high'
 /
 &system
    ibrav= 0,
    nat= 2, ntyp= 1,
    nbnd =40
    ecutwfc = 40.0, ecutrho = 160.0,
    occupations = 'smearing',
    degauss = 0.0019
    smearing = 'gaussian'
!  nosym = .true.
 /
 &electrons
    mixing_mode = 'plain'
    electron_maxstep = 50
    scf_must_converge = .false.
   conv_thr = 1.0d-7
 /
K_POINTS {crystal_b}
5
0.5 0.5 0.5 40
0.0 0.0 0.0 40
0.5 0.0 0.0 40
0.5 0.5 0.0 40
0.0 0.0 0.0 40

ATOMIC_SPECIES
Si 28.0855  Si_ONCV_PBE-1.2.upf

CELL_PARAMETERS (angstrom)
   2.738838590   2.738838590  -0.000000000
  -0.000000000   2.738838590   2.738838590
   2.738838590   0.000000000   2.738838590

ATOMIC_POSITIONS (crystal)
Si           -0.0000000000        0.0000000000        0.0000000000
Si            0.2500000000        0.2500000000        0.2500000000
